RAW/montane/fspd-mid/r101_seed-7.out
1009.95222	22.181	117.816
