RAW/montane/fspd-mid/r101_seed-7.sol
Route #1: 6 96 99 59 92 97 95 94
Route #2: 28 12 54 55 25 4 21 53
Route #3: 68 80 24 29 34 78 81 33
Route #4: 7 19 64 49 36 47 48 82
Route #5: 51 9 35 71 65 66 20 30 70
Route #6: 98 37 100 91 85 93
Route #7: 13 87 42 43 15 57 2 58
Route #8: 61 16 44 14 38 86 17 84 5
Route #9: 18 8 46 45 83 60 89
Route #10: 76 77 3 79 50 1 27
Route #11: 40 73 74 22 41 23 67 39 56 75 72 26
Route #12: 69 31 10 32 90 63 11 62 88 52
Cost 1009.952220